(set-info :smt-lib-version 2.6)
(set-logic QF_UFLRA)
(set-info :source |
MathSat group

|)
(set-info :category "random")
(set-info :status sat)
(declare-fun x0 () Real)
(declare-fun x1 () Real)
(declare-fun x2 () Real)
(declare-fun x3 () Real)
(declare-fun x4 () Real)
(declare-fun x5 () Real)
(declare-fun x6 () Real)
(declare-fun x7 () Real)
(declare-fun x8 () Real)
(declare-fun x9 () Real)
(declare-fun x10 () Real)
(declare-fun x11 () Real)
(declare-fun x12 () Real)
(declare-fun x13 () Real)
(declare-fun x14 () Real)
(declare-fun x15 () Real)
(declare-fun x16 () Real)
(declare-fun x17 () Real)
(declare-fun x18 () Real)
(declare-fun x19 () Real)
(declare-fun x20 () Real)
(declare-fun x21 () Real)
(declare-fun x22 () Real)
(declare-fun x23 () Real)
(declare-fun x24 () Real)
(declare-fun x25 () Real)
(declare-fun x26 () Real)
(declare-fun x27 () Real)
(declare-fun x28 () Real)
(declare-fun x29 () Real)
(declare-fun x30 () Real)
(declare-fun x31 () Real)
(declare-fun x32 () Real)
(declare-fun x33 () Real)
(declare-fun x34 () Real)
(declare-fun x35 () Real)
(declare-fun x36 () Real)
(declare-fun x37 () Real)
(declare-fun x38 () Real)
(declare-fun x39 () Real)
(declare-fun x40 () Real)
(declare-fun x41 () Real)
(declare-fun x42 () Real)
(declare-fun x43 () Real)
(declare-fun x44 () Real)
(declare-fun x45 () Real)
(declare-fun x46 () Real)
(declare-fun x47 () Real)
(declare-fun x48 () Real)
(declare-fun x49 () Real)
(declare-fun f0_1 (Real) Real)
(declare-fun f0_2 (Real Real) Real)
(declare-fun f0_3 (Real Real Real) Real)
(declare-fun f0_4 (Real Real Real Real) Real)
(declare-fun P0 () Bool)
(declare-fun P1 () Bool)
(declare-fun P2 () Bool)
(declare-fun P3 () Bool)
(declare-fun P4 () Bool)
(declare-fun P5 () Bool)
(declare-fun P6 () Bool)
(declare-fun P7 () Bool)
(declare-fun P8 () Bool)
(declare-fun P9 () Bool)
(declare-fun P10 () Bool)
(declare-fun P11 () Bool)
(declare-fun P12 () Bool)
(declare-fun P13 () Bool)
(declare-fun P14 () Bool)
(declare-fun P15 () Bool)
(declare-fun P16 () Bool)
(declare-fun P17 () Bool)
(declare-fun P18 () Bool)
(declare-fun P19 () Bool)
(declare-fun P20 () Bool)
(declare-fun P21 () Bool)
(declare-fun P22 () Bool)
(declare-fun P23 () Bool)
(declare-fun P24 () Bool)
(declare-fun P25 () Bool)
(declare-fun P26 () Bool)
(declare-fun P27 () Bool)
(declare-fun P28 () Bool)
(declare-fun P29 () Bool)
(declare-fun P30 () Bool)
(declare-fun P31 () Bool)
(declare-fun P32 () Bool)
(declare-fun P33 () Bool)
(declare-fun P34 () Bool)
(declare-fun P35 () Bool)
(declare-fun P36 () Bool)
(declare-fun P37 () Bool)
(declare-fun P38 () Bool)
(declare-fun P39 () Bool)
(declare-fun P40 () Bool)
(declare-fun P41 () Bool)
(declare-fun P42 () Bool)
(declare-fun P43 () Bool)
(declare-fun P44 () Bool)
(declare-fun P45 () Bool)
(declare-fun P46 () Bool)
(declare-fun P47 () Bool)
(declare-fun P48 () Bool)
(declare-fun P49 () Bool)
(assert (let ((?v_39 (* 15 x45)) (?v_26 (* 16 x11)) (?v_129 (* 19 x23)) (?v_6 (* 17 x49)) (?v_162 (< (- (+ (* 21 x39) (* 16 x36)) (* 26 x47)) 27)) (?v_189 (<= (- (- (* 18 x43) (* 26 x8)) (* 24 x9)) 3)) (?v_10 (distinct (+ (- (* 9 x23) (* 6 x15)) (* 2 x38)) 16)) (?v_107 (< (- (- (* 20 x46) (* 10 x30)) (* 11 x34)) 10)) (?v_25 (f0_1 x38))) (let ((?v_101 (distinct ?v_25 x35)) (?v_42 (f0_1 x40)) (?v_12 (f0_1 x13))) (let ((?v_105 (= ?v_42 ?v_12)) (?v_142 (f0_1 x27))) (let ((?v_234 (= ?v_142 (f0_1 x15))) (?v_65 (distinct x38 (f0_1 x41))) (?v_257 (distinct (f0_2 x22 x1) (f0_2 x43 x31))) (?v_69 (distinct (f0_1 x18) x8)) (?v_52 (distinct x32 (f0_2 x12 x48))) (?v_97 (f0_1 x0))) (let ((?v_217 (distinct ?v_97 x3)) (?v_72 (distinct x42 (f0_2 x16 x36))) (?v_88 (= (f0_2 x45 x33) x41)) (?v_0 (= (f0_2 x23 x29) (f0_1 x6))) (?v_128 (= (f0_2 x43 x17) ?v_25)) (?v_68 (distinct x43 (f0_2 x11 x3))) (?v_5 (f0_1 x32))) (let ((?v_30 (= ?v_5 (f0_1 x17))) (?v_89 (= (f0_1 x9) x36)) (?v_47 (f0_1 x24)) (?v_48 (f0_1 x16))) (let ((?v_66 (distinct ?v_47 ?v_48)) (?v_3 (distinct (f0_2 x30 x4) ?v_42)) (?v_1 (distinct x0 (f0_1 x36))) (?v_220 (= (f0_2 x0 x32) x15)) (?v_206 (distinct x28 ?v_12)) (?v_22 (distinct x34 (f0_2 x8 x30))) (?v_61 (distinct x1 (f0_2 x32 x36))) (?v_57 (f0_1 x49))) (let ((?v_71 (distinct (f0_2 x23 x43) ?v_57)) (?v_100 (= (f0_2 x33 x40) x13)) (?v_192 (= (f0_2 x16 x35) (f0_1 x8))) (?v_93 (= x44 (f0_1 x1))) (?v_98 (f0_1 x10))) (let ((?v_11 (= (f0_2 x13 x42) ?v_98)) (?v_104 (distinct ?v_5 x27)) (?v_32 (f0_1 x44))) (let ((?v_118 (distinct (f0_2 x5 x6) ?v_32)) (?v_41 (distinct x4 (f0_2 x1 x16))) (?v_94 (distinct (f0_1 x26) x4)) (?v_67 (distinct (f0_2 x29 x31) ?v_32)) (?v_157 (distinct (f0_2 x29 x26) ?v_47)) (?v_75 (distinct x27 (f0_1 x30))) (?v_169 (= (f0_2 x3 x26) (f0_2 x22 x7))) (?v_183 (= x32 ?v_12)) (?v_79 (= x39 (f0_2 x49 x42))) (?v_176 (distinct (f0_2 x4 x6) x2)) (?v_83 (= (f0_2 x15 x44) (f0_2 x34 x6))) (?v_181 (distinct x10 x4)) (?v_99 (distinct (f0_1 x19) ?v_5)) (?v_86 (= (f0_2 x12 x39) x32)) (?v_19 (distinct ?v_12 x29)) (?v_16 (f0_1 x2))) (let ((?v_17 (distinct ?v_16 x19)) (?v_191 (= (f0_1 x11) ?v_57)) (?v_85 (distinct ?v_16 ?v_48)) (?v_173 (distinct ?v_142 x32)) (?v_159 (distinct (f0_2 x13 x35) (f0_2 x44 x4))) (?v_188 (distinct (f0_2 x26 x8) x21)) (?v_215 (distinct ?v_97 ?v_98)) (?v_23 (not ?v_0)) (?v_63 (not ?v_99)) (?v_112 (not ?v_257)) (?v_198 (not ?v_3)) (?v_58 (not P30))) (let ((?v_124 (not ?v_85)) (?v_2 (not P45)) (?v_113 (not ?v_107)) (?v_29 (not ?v_183)) (?v_255 (not P31)) (?v_27 (not P18)) (?v_31 (not ?v_79)) (?v_21 (not P16)) (?v_81 (not P25)) (?v_24 (not P20)) (?v_45 (not ?v_75)) (?v_185 (not ?v_67)) (?v_18 (not ?v_10)) (?v_144 (not ?v_192)) (?v_121 (not P11)) (?v_82 (not ?v_206)) (?v_59 (not ?v_17)) (?v_108 (not ?v_234)) (?v_110 (not ?v_19)) (?v_143 (not ?v_22)) (?v_146 (not ?v_65)) (?v_152 (not P14)) (?v_49 (not P9)) (?v_233 (not ?v_157)) (?v_90 (not P36)) (?v_207 (not ?v_118)) (?v_175 (not ?v_88)) (?v_92 (not P28)) (?v_167 (not ?v_1)) (?v_154 (not P17)) (?v_195 (not P43)) (?v_168 (not P35)) (?v_80 (not P6)) (?v_51 (not ?v_191)) (?v_145 (or P15 ?v_41)) (?v_186 (not ?v_105)) (?v_203 (not P40)) (?v_182 (not P0)) (?v_164 (not ?v_66)) (?v_103 (not P38)) (?v_123 (not ?v_52)) (?v_201 (not P26)) (?v_227 (not ?v_68)) (?v_126 (not P32)) (?v_127 (not P15)) (?v_174 (not ?v_188)) (?v_209 (not ?v_61)) (?v_249 (not P41)) (?v_134 (not ?v_41)) (?v_106 (not P2)) (?v_139 (not P48)) (?v_219 (not ?v_71)) (?v_120 (not ?v_72)) (?v_73 (not P22)) (?v_171 (not P44)) (?v_245 (not P42)) (?v_160 (not P12)) (?v_235 (not P21)) (?v_84 (not P29)) (?v_177 (not ?v_86)) (?v_122 (not P4)) (?v_148 (not ?v_93)) (?v_260 (not ?v_94)) (?v_149 (not ?v_100)) (?v_132 (not ?v_69)) (?v_242 (not P19)) (?v_156 (not P10)) (?v_210 (not P37)) (?v_216 (not P49)) (?v_251 (not P39)) (?v_246 (not P8)) (?v_190 (not P5)) (?v_214 (not ?v_11)) (?v_213 (not P23)) (?v_240 (not ?v_128)) (?v_187 (not ?v_104)) (?v_150 (not ?v_89)) (?v_161 (not P27)) (?v_223 (not ?v_173)) (?v_205 (not P24)) (?v_172 (not ?v_159)) (?v_200 (not ?v_162)) (?v_230 (not ?v_101)) (?v_208 (not ?v_176)) (?v_196 (not P3)) (?v_250 (not ?v_181)) (?v_222 (not ?v_169)) (?v_259 (not ?v_189)) (?v_221 (not P33)) (?v_248 (not ?v_215)) (?v_232 (not P47)) (?v_258 (not ?v_30)) (?v_237 (not ?v_217)) (?v_262 (not ?v_83)) (?v_253 (not P1)) (?v_261 (not P7)) (?v_263 (not P34)) (?v_243 (not ?v_220)) (?v_9 (<= (- (- 0 (* 22 x35)) (* 2 x47)) 11)) (?v_141 (<= (+ (* 24 x28) (* 4 x49) (* 3 x37)) 23))) (let ((?v_229 (not ?v_141)) (?v_228 (not ?v_9)) (?v_166 (< (- (* 7 x48) (* 22 x1)) 22))) (let ((?v_178 (not ?v_166)) (?v_13 (< (- (+ (* (- 18) x30) (* 18 x14)) (* 7 x35)) 18)) (?v_35 (< (- (- (* (- 22) x6) (* 18 x23)) (* 13 x6)) 9)) (?v_111 (< (+ (- (* (- 8) x19) (* 8 x4)) (* 3 x18)) (- 5)))) (let ((?v_224 (not ?v_111)) (?v_20 (< (- (* (- 11) x17) (* 15 x5)) 15))) (let ((?v_14 (not ?v_20)) (?v_15 (= (+ (* 25 x17) (* 14 x21) (* 17 x43)) (- 12))) (?v_70 (= (- (- (* (- 13) x2) (* 21 x11)) (* 20 x18)) (- 28)))) (let ((?v_37 (not ?v_70)) (?v_116 (distinct (+ (* (- 14) x18) (* 14 x45) (* 22 x30)) (- 8))) (?v_231 (< (+ (* (- 8) x26) (* 23 x26) (* 18 x30)) 9))) (let ((?v_102 (not ?v_231)) (?v_34 (<= (- (- (* (- 23) x47) (* 19 x28)) (* 23 x24)) (- 17))) (?v_78 (<= (+ (* 11 x48) (* 2 x34) (* 13 x29)) (- 25))) (?v_4 (<= (- (- (* (- 19) x6) (* 11 x25)) (* 9 x13)) 16)) (?v_62 (< (- (+ (* (- 27) x31) (* 4 x36)) 0) (- 14))) (?v_137 (<= (- (- (* 8 x3) x29) 0) (- 11)))) (let ((?v_7 (not ?v_137)) (?v_136 (not ?v_4)) (?v_8 (= (+ (- (* 9 x36) ?v_6) (* 21 x40)) (- 24))) (?v_53 (distinct (+ (- (* 27 x24) (* 22 x16)) (* 13 x3)) (- 14))) (?v_114 (<= (- (+ (* 18 x33) ?v_26) (* 9 x16)) (- 6)))) (let ((?v_50 (not ?v_114)) (?v_40 (<= (- (+ (* 4 x1) (* 27 x11)) (* 27 x45)) (- 27))) (?v_56 (<= (+ (- (* (- 7) x8) (* 18 x26)) ?v_6) (- 11))) (?v_55 (not ?v_8)) (?v_238 (<= (- (+ (* (- 10) x43) ?v_39) 0) 7))) (let ((?v_64 (not ?v_238)) (?v_202 (distinct (+ (* (- 3) x12) (* 6 x41) (* 9 x8)) 1))) (let ((?v_36 (not ?v_202)) (?v_28 (<= (+ (- (* (- 6) x21) (* 13 x28)) (* 4 x23)) 18)) (?v_194 (< (- (+ (* (- 3) x42) x31) (* 16 x43)) (- 6))) (?v_95 (distinct (+ (- (* 20 x43) (* 9 x10)) ?v_26) (- 16)))) (let ((?v_77 (not ?v_95)) (?v_211 (<= (- (- (* (- 19) x39) (* 23 x35)) (* 25 x28)) (- 23)))) (let ((?v_225 (not ?v_211)) (?v_138 (not ?v_28)) (?v_151 (<= (+ (* (- 10) x6) (* 12 x8)) (- 6)))) (let ((?v_155 (not ?v_151)) (?v_115 (<= (+ (* (- 27) x3) (* 5 x7) (* 17 x28)) (- 18))) (?v_33 (<= (- (+ (* 25 x29) (* 6 x48)) (* 13 x31)) (- 2))) (?v_54 (not ?v_13)) (?v_43 (< (+ (- (* (- 1) x40) (* 5 x9)) (* 2 x20)) (- 2)))) (let ((?v_147 (not ?v_43)) (?v_38 (not ?v_34)) (?v_46 (<= (- (- (* (- 5) x33) (* 15 x11)) (* 10 x8)) (- 27))) (?v_44 (< (- (+ (* 15 x26) (* 26 x38)) (* 5 x33)) (- 27)))) (let ((?v_131 (not ?v_44)) (?v_197 (not ?v_15)) (?v_76 (distinct (- (- (* 8 x2) ?v_39) (* 23 x14)) (- 8))) (?v_247 (not ?v_40)) (?v_199 (< (+ (* (- 23) x12) (* 8 x37) (* 8 x29)) 5))) (let ((?v_133 (not ?v_199)) (?v_91 (< (- (+ (* (- 23) x20) (* 9 x19)) (* 6 x32)) (- 11))) (?v_60 (not ?v_53)) (?v_236 (distinct (+ (* 18 x0) (* 24 x25) (* 2 x23)) (- 24)))) (let ((?v_74 (not ?v_236)) (?v_180 (not ?v_56)) (?v_87 (not ?v_46)) (?v_163 (not ?v_35)) (?v_241 (<= (- (+ (* (- 27) x36) (* 18 x34)) (* 27 x1)) (- 22)))) (let ((?v_130 (not ?v_241)) (?v_96 (< (+ (* (- 8) x12) ?v_129 (* 17 x8)) (- 4))) (?v_117 (< (+ (- (* (- 20) x11) (* 17 x48)) (* 5 x14)) 14)) (?v_119 (not ?v_33)) (?v_109 (not ?v_62)) (?v_125 (<= (- (* 10 x13) (* 18 x16)) (- 23))) (?v_252 (not ?v_91)) (?v_140 (<= (+ (- (* (- 2) x18) (* 9 x44)) (* 9 x41)) 0))) (let ((?v_218 (not ?v_117)) (?v_239 (not ?v_116)) (?v_153 (<= (- (+ (* (- 12) x43) ?v_129) (* 2 x22)) (- 15))) (?v_184 (< (+ (- (* 17 x25) (* 8 x31)) (* 7 x45)) (- 19)))) (let ((?v_135 (not ?v_184)) (?v_158 (not ?v_115)) (?v_193 (not ?v_140)) (?v_165 (not ?v_153)) (?v_170 (not ?v_76)) (?v_179 (<= (+ (- (* (- 19) x13) (* 2 x16)) (* 4 x21)) (- 14))) (?v_212 (not ?v_78)) (?v_244 (not ?v_125)) (?v_204 (= (- (+ (* (- 26) x32) (* 26 x12)) (* 22 x47)) 6))) (let ((?v_226 (not ?v_204)) (?v_256 (not ?v_194)) (?v_254 (not ?v_179))) (and (and (and (and (and (and (and (and (and (and (and (and (and (and (and (and (and (and (and (and (and (and (and (and (and (and (and (and (and (and (and (and (and (and (and (and (and (and (and (and (and (and (and (and (and (and (and (and (and (and (and (and (and (and (and (and (and (and (and (and (and (and (and (and (and (and (and (and (and (and (and (and (and (and (and (and (and (and (and (and (and (and (and (and (and (and (and (and (and (and (and (and (and (and (and (and (and (and (and (and (and (and (and (and (and (and (and (and (and (and (and (and (and (and (and (and (and (and (and (and (and (and (and (and (and (and (and (and (and (and (and (and (and (and (and (and (and (and (and (and (and (and (and (and (and (and (and (and (and (and (and (and (and (and (and (and (and (and (and (and (and (and (and (and (and (and (and (and (and (and (and (and (and (and (and (and (and (and (and (and (and (and (and (and (and (and (and (and (and (and (and (and (and (and (and (and (and (and (and (and (and (and (and (and (and (and (and (and (and (and (and (and (and (and (and (and (and (and (and (and (and (and (and (and (and (and (and (and (and (and (and (and (and (and (and (and (and (and (and (and (and (and (and (and (and (and (and (and (and (and (and (and (and (and (and (and (and (and (and (and (and (and (and (and (and (and (and (and (and (and (and (and (and (and (and (and (and (and (and (and (and (and (and (and (and (and (and (and (and (and (and (and (and (and (and (and (and (and (and (and (and (and (and (and (and (and (and (and (and (and (and (and (and (and (and (and (and (and (and (and (and (and (and (and (and (and (and (and (and (and (and (and (and (and (and (and (and (and (and (and (and (and (and (and (and (and (and (and (and (and (and (and (and (and (and (and (and (and (and (and (and (and (and (and (and (and (and (and (and (and (and (and (and (and (and (and (and (and (and (and (and (and (and (and (and (and (and (and (and (and (and (and (and (and (and (and (and (and (and (and (and (and (and (and (and (and (and (and (and (and (and (and (and (and (and (and (and (and (and (and (and (and (and (and (and (and (and (and (and (and (and (and (and (and (and (and (and (and (and (and (and (and (and (and (and (and (and (and (and (and (and (and (and (and (and (and (and (and (and (and (and (and (and (and (and (and (and (and (and (and (and (and (and (and (and (and (and (and (and (and (and (and (and (and (and (and (and (and (and (and (and (and (and (and (and (and (and (and (and (and (and (and (and (and (and (and (and (and (and (and (and (and (and (and (and (and (and (and (and (and (and (and (and (and (and (and (and (and (and (and (and (and (and (and (and (and (and (and (and (and (and (and (and (and (and (and (and (and (and (and (and (and (and (and (and (and (and (and (and (and (and (and (and (and (and (and (and (and (and (and (and (and (and (and (and (and (and (and (and (and (and (and (and (and (and (and (and (and (and (and (and (and (and (and (and (and (and (and (and (or (or ?v_10 P14) ?v_13) (or (or ?v_23 ?v_63) ?v_112)) (or (or P32 ?v_35) ?v_224)) (or (or ?v_9 ?v_0) P46)) (or (or ?v_14 ?v_198) ?v_69)) (or (or ?v_58 ?v_124) ?v_15)) (or (or ?v_37 ?v_2) ?v_1)) (or (or ?v_113 ?v_1) ?v_11)) (or (or ?v_101 ?v_29) ?v_255)) (or (or ?v_27 ?v_116) ?v_102)) (or (or ?v_34 ?v_217) ?v_31)) (or (or ?v_78 ?v_2) ?v_3)) (or (or ?v_4 ?v_62) ?v_169)) (or (or ?v_21 ?v_81) ?v_7)) (or (or ?v_24 ?v_136) ?v_45)) (or (or ?v_100 ?v_185) ?v_30)) (or (or P27 ?v_8) ?v_53)) (or (or ?v_229 P14) ?v_50)) (or (or P44 P17) ?v_40)) (or (or P21 ?v_56) ?v_7)) (or (or ?v_55 ?v_9) ?v_18)) (or (or ?v_144 ?v_64) ?v_11)) (or (or P48 ?v_19) ?v_13)) (or (or ?v_121 ?v_36) ?v_82)) (or (or P15 ?v_14) ?v_15)) (or (or ?v_28 ?v_22) ?v_59)) (or (or ?v_17 ?v_108) ?v_52)) (or (or ?v_159 ?v_194) ?v_18)) (or (or ?v_110 ?v_20) ?v_15)) (or (or P11 P41) P26)) (or (or ?v_21 ?v_143) ?v_2)) (or (or ?v_23 ?v_146) P14)) (or (or ?v_152 P41) ?v_24)) (or (or ?v_49 ?v_128) ?v_89)) (or (or ?v_93 ?v_77) P5)) (or (or ?v_27 ?v_225) ?v_138)) (or (or ?v_29 ?v_155) ?v_30)) (or (or ?v_115 ?v_33) ?v_22)) (or (or ?v_233 ?v_17) ?v_41)) (or (or ?v_86 ?v_54) ?v_147)) (or (or ?v_31 P17) ?v_90)) (or (or ?v_207 ?v_175) ?v_33)) (or (or ?v_38 ?v_30) P32)) (or (or ?v_35 P1) P47)) (or (or ?v_46 ?v_36) ?v_131)) (or (or ?v_37 ?v_38) ?v_92)) (or (or ?v_197 ?v_167) ?v_76)) (or (or P29 ?v_247) ?v_154)) (or (or ?v_195 ?v_168) ?v_133)) (or (or ?v_80 ?v_51) ?v_228)) (or ?v_145 P17)) (or (or ?v_186 ?v_43) P22)) (or (or ?v_34 ?v_44) P36)) (or (or ?v_203 ?v_45) ?v_46)) (or (or ?v_182 ?v_17) ?v_164)) (or (or ?v_103 ?v_72) ?v_49)) (or (or ?v_189 ?v_91) ?v_50)) (or (or ?v_51 ?v_83) ?v_123)) (or (or ?v_60 ?v_201) ?v_54)) (or (or ?v_227 ?v_55) ?v_74)) (or (or ?v_126 ?v_127) ?v_180)) (or (or ?v_71 ?v_1) ?v_174)) (or (or P47 ?v_58) ?v_87)) (or (or ?v_59 ?v_36) ?v_163)) (or (or P13 ?v_21) ?v_53)) (or (or P47 ?v_130) ?v_181)) (or (or ?v_60 ?v_209) ?v_36)) (or (or ?v_61 ?v_20) ?v_249)) (or (or ?v_96 P1) P39)) (or (or P5 ?v_134) ?v_117)) (or (or ?v_62 ?v_13) ?v_106)) (or (or ?v_63 ?v_64) P32)) (or (or ?v_65 ?v_139) ?v_66)) (or (or ?v_67 ?v_68) P6)) (or (or ?v_69 ?v_3) ?v_70)) (or (or P37 P38) ?v_219)) (or (or ?v_120 ?v_73) ?v_104)) (or (or ?v_73 ?v_74) ?v_75)) (or (or ?v_17 ?v_36) ?v_76)) (or (or ?v_15 ?v_77) ?v_78)) (or (or ?v_22 ?v_79) ?v_80)) (or (or ?v_171 ?v_245) ?v_119)) (or (or P25 ?v_81) ?v_35)) (or (or ?v_75 ?v_54) ?v_109)) (or (or ?v_160 ?v_235) ?v_84)) (or (or ?v_73 ?v_82) ?v_54)) (or (or ?v_83 ?v_84) ?v_75)) (or (or ?v_85 ?v_177) ?v_8)) (or (or ?v_94 ?v_122) ?v_87)) (or (or ?v_88 ?v_89) P5)) (or (or ?v_2 ?v_73) ?v_89)) (or (or P2 ?v_22) ?v_125)) (or (or ?v_76 ?v_76) P42)) (or (or ?v_90 ?v_91) P9)) (or (or ?v_36 ?v_92) ?v_31)) (or (or ?v_86 ?v_148) ?v_66)) (or (or ?v_71 ?v_260) ?v_95)) (or (or ?v_75 ?v_31) ?v_34)) (or (or (not ?v_96) P48) ?v_33)) (or (or ?v_252 ?v_215) ?v_24)) (or (or P31 P36) P12)) (or (or ?v_99 ?v_55) P19)) (or (or P30 P21) P44)) (or (or ?v_9 ?v_149) ?v_101)) (or (or P46 P49) ?v_38)) (or (or ?v_102 ?v_69) ?v_14)) (or (or ?v_103 ?v_132) ?v_20)) (or (or ?v_104 ?v_33) ?v_105)) (or (or ?v_106 ?v_107) ?v_43)) (or (or ?v_92 ?v_140) ?v_95)) (or (or ?v_242 ?v_82) ?v_55)) (or (or ?v_108 ?v_109) ?v_93)) (or (or ?v_110 ?v_111) ?v_112)) (or (or ?v_52 ?v_78) ?v_113)) (or (or ?v_1 ?v_22) ?v_156)) (or (or P35 ?v_114) ?v_115)) (or (or P31 ?v_116) ?v_2)) (or (or P34 ?v_220) ?v_103)) (or (or P26 P11) ?v_218)) (or (or ?v_33 P34) ?v_118)) (or (or ?v_176 ?v_210) ?v_216)) (or (or ?v_251 ?v_104) P46)) (or (or ?v_119 P18) ?v_56)) (or (or P2 ?v_120) ?v_239)) (or (or P44 P36) ?v_121)) (or (or ?v_122 ?v_90) ?v_123)) (or (or ?v_2 ?v_246) ?v_190)) (or (or ?v_124 ?v_118) ?v_117)) (or (or ?v_125 P49) ?v_113)) (or (or ?v_126 P39) ?v_214)) (or (or P9 ?v_127) ?v_213)) (or (or ?v_28 ?v_240) P22)) (or (or ?v_153 ?v_135) ?v_65)) (or (or ?v_117 ?v_77) ?v_13)) (or (or P40 ?v_111) ?v_55)) (or (or P36 ?v_187) P14)) (or (or ?v_130 ?v_84) ?v_96)) (or (or ?v_76 ?v_128) ?v_103)) (or (or ?v_150 P18) ?v_131)) (or (or ?v_158 ?v_105) ?v_130)) (or (or ?v_132 ?v_133) ?v_134)) (or (or ?v_135 ?v_64) ?v_127)) (or (or ?v_59 ?v_136) ?v_115)) (or (or ?v_166 ?v_35) ?v_77)) (or (or ?v_137 P10) ?v_55)) (or (or P4 ?v_67) ?v_85)) (or (or ?v_50 ?v_138) ?v_38)) (or (or ?v_31 ?v_139) ?v_114)) (or (or ?v_27 ?v_161) ?v_193)) (or (or P49 ?v_94) P36)) (or (or ?v_2 P5) ?v_139)) (or (or ?v_141 ?v_223) ?v_143)) (or (or ?v_144 ?v_1) ?v_38)) (or ?v_145 ?v_46)) (or (or ?v_71 ?v_81) ?v_70)) (or (or P15 ?v_146) ?v_147)) (or (or ?v_86 ?v_31) ?v_148)) (or (or ?v_149 ?v_150) ?v_3)) (or (or P25 P48) ?v_151)) (or (or ?v_152 ?v_165) ?v_205)) (or (or ?v_122 ?v_63) ?v_154)) (or (or P41 ?v_155) ?v_10)) (or (or ?v_45 P11) ?v_108)) (or (or ?v_156 ?v_162) ?v_54)) (or (or ?v_157 ?v_158) ?v_172)) (or (or P20 ?v_0) ?v_160)) (or (or ?v_59 ?v_161) P11)) (or (or P4 ?v_157) P30)) (or (or ?v_122 ?v_0) ?v_200)) (or (or ?v_7 ?v_133) ?v_108)) (or (or ?v_18 P30) P0)) (or (or ?v_144 ?v_36) ?v_163)) (or (or ?v_138 P32) ?v_85)) (or (or P44 ?v_132) ?v_164)) (or (or ?v_151 ?v_122) ?v_3)) (or (or ?v_230 ?v_165) ?v_166)) (or (or ?v_118 ?v_141) P45)) (or (or ?v_123 ?v_81) ?v_167)) (or (or ?v_72 ?v_78) ?v_168)) (or (or ?v_80 ?v_170) ?v_178)) (or (or ?v_179 P40) ?v_169)) (or (or P1 ?v_21) ?v_125)) (or (or ?v_81 ?v_162) ?v_40)) (or (or ?v_170 ?v_64) (not P13))) (or (or ?v_51 ?v_212) ?v_107)) (or (or ?v_171 ?v_58) ?v_56)) (or (or ?v_172 ?v_173) ?v_174)) (or (or ?v_20 ?v_46) ?v_117)) (or (or P5 P46) ?v_154)) (or (or ?v_175 ?v_29) ?v_58)) (or (or ?v_160 P27) ?v_37)) (or (or ?v_84 ?v_139) ?v_114)) (or (or ?v_113 ?v_112) ?v_35)) (or (or ?v_66 ?v_68) P3)) (or (or P7 ?v_69) ?v_208)) (or (or ?v_177 P4) ?v_170)) (or (or ?v_140 ?v_196) ?v_78)) (or (or ?v_154 ?v_149) P41)) (or (or P15 ?v_101) ?v_166)) (or (or ?v_178 P37) ?v_179)) (or (or ?v_109 ?v_117) ?v_36)) (or (or ?v_180 ?v_119) ?v_250)) (or (or ?v_22 ?v_37) P37)) (or (or ?v_182 ?v_183) ?v_184)) (or (or ?v_82 ?v_185) ?v_92)) (or (or ?v_244 P6) ?v_226)) (or (or ?v_77 ?v_186) ?v_157)) (or (or P7 P7) ?v_9)) (or (or P42 ?v_154) ?v_74)) (or (or ?v_19 ?v_143) ?v_81)) (or (or ?v_185 ?v_187) ?v_36)) (or (or ?v_188 ?v_189) ?v_58)) (or (or ?v_190 ?v_191) P29)) (or (or ?v_153 P27) ?v_192)) (or (or P29 ?v_193) ?v_96)) (or (or P12 ?v_109) ?v_2)) (or (or ?v_66 ?v_173) ?v_162)) (or (or ?v_10 ?v_256) ?v_179)) (or (or ?v_135 ?v_93) ?v_150)) (or (or P6 ?v_88) P35)) (or (or ?v_35 P37) ?v_90)) (or (or ?v_123 ?v_72) ?v_147)) (or (or ?v_67 P49) ?v_34)) (or (or ?v_161 ?v_222) ?v_63)) (or (or ?v_195 ?v_176) ?v_157)) (or (or ?v_21 ?v_194) ?v_126)) (or (or ?v_23 ?v_10) ?v_120)) (or (or ?v_174 ?v_28) ?v_119)) (or (or ?v_96 ?v_143) ?v_147)) (or (or ?v_123 ?v_158) ?v_99)) (or (or P19 P41) ?v_20)) (or (or ?v_196 ?v_132) ?v_108)) (or (or ?v_22 ?v_127) ?v_197)) (or (or ?v_156 ?v_198) ?v_77)) (or (or ?v_199 ?v_41) ?v_63)) (or (or ?v_35 P14) ?v_76)) (or (or ?v_259 ?v_188) ?v_200)) (or (or P5 P6) ?v_66)) (or (or ?v_15 P13) P22)) (or (or ?v_77 P36) ?v_14)) (or (or ?v_201 ?v_128) ?v_202)) (or (or ?v_37 ?v_29) ?v_130)) (or (or ?v_203 ?v_58) ?v_204)) (or (or ?v_51 ?v_18) ?v_185)) (or (or ?v_170 ?v_68) ?v_205)) (or (or ?v_94 ?v_115) ?v_65)) (or (or ?v_195 P20) ?v_192)) (or (or ?v_121 ?v_94) ?v_178)) (or (or ?v_40 ?v_60) P16)) (or (or ?v_165 ?v_169) ?v_29)) (or (or ?v_206 ?v_15) ?v_207)) (or (or P22 ?v_13) P14)) (or (or ?v_128 ?v_155) ?v_62)) (or (or ?v_147 ?v_45) P4)) (or (or ?v_155 P27) ?v_208)) (or (or ?v_27 ?v_196) ?v_24)) (or (or ?v_139 ?v_135) ?v_158)) (or (or ?v_196 ?v_167) ?v_185)) (or (or P20 ?v_168) ?v_221)) (or (or P41 P49) ?v_209)) (or (or ?v_210 ?v_211) ?v_212)) (or (or ?v_147 ?v_127) ?v_102)) (or (or P31 ?v_213) ?v_108)) (or (or ?v_214 ?v_159) P10)) (or (or ?v_248 P31) ?v_69)) (or (or P43 ?v_50) ?v_77)) (or (or ?v_232 ?v_60) ?v_68)) (or (or ?v_113 ?v_69) ?v_154)) (or (or ?v_157 ?v_102) ?v_216)) (or (or ?v_71 P21) ?v_217)) (or (or ?v_218 ?v_60) ?v_92)) (or (or ?v_23 ?v_195) ?v_219)) (or (or ?v_74 ?v_15) ?v_112)) (or (or ?v_29 ?v_107) ?v_171)) (or (or ?v_204 ?v_220) ?v_49)) (or (or ?v_184 P42) ?v_43)) (or (or P4 P21) P0)) (or (or ?v_77 ?v_199) P2)) (or (or ?v_192 ?v_133) ?v_151)) (or (or ?v_65 ?v_63) ?v_221)) (or (or P33 P2) ?v_17)) (or (or ?v_41 ?v_120) ?v_106)) (or (or P32 ?v_135) ?v_222)) (or (or ?v_138 ?v_258) ?v_167)) (or (or ?v_17 ?v_127) ?v_56)) (or (or ?v_223 ?v_23) ?v_185)) (or (or ?v_69 ?v_54) ?v_224)) (or (or ?v_201 ?v_208) P48)) (or (or ?v_225 P47) P34)) (or (or ?v_95 ?v_226) ?v_191)) (or (or ?v_120 ?v_55) ?v_208)) (or (or ?v_193 ?v_136) P4)) (or (or ?v_173 ?v_227) ?v_17)) (or (or ?v_161 ?v_69) ?v_198)) (or (or ?v_222 ?v_213) ?v_228)) (or (or ?v_229 ?v_153) ?v_126)) (or (or ?v_88 P34) ?v_20)) (or (or ?v_94 P41) ?v_177)) (or (or ?v_0 ?v_215) ?v_230)) (or (or ?v_207 ?v_150) ?v_177)) (or (or ?v_177 P14) ?v_29)) (or (or ?v_237 ?v_121) ?v_218)) (or (or ?v_20 ?v_91) ?v_153)) (or (or ?v_64 ?v_262) ?v_7)) (or (or ?v_87 ?v_58) ?v_72)) (or (or ?v_230 ?v_134) ?v_79)) (or (or ?v_126 ?v_253) P49)) (or (or ?v_202 ?v_108) ?v_95)) (or (or ?v_15 ?v_105) ?v_41)) (or (or ?v_81 ?v_68) ?v_59)) (or (or P45 ?v_35) ?v_3)) (or (or ?v_231 ?v_64) ?v_136)) (or (or P16 ?v_113) P24)) (or (or ?v_232 P10) ?v_105)) (or (or ?v_114 ?v_11) ?v_233)) (or (or ?v_234 ?v_38) ?v_150)) (or (or ?v_92 ?v_195) ?v_122)) (or (or ?v_94 ?v_150) P33)) (or (or ?v_125 P34) ?v_3)) (or (or ?v_77 P9) P33)) (or (or ?v_155 ?v_170) ?v_235)) (or (or ?v_50 ?v_69) ?v_197)) (or (or ?v_130 ?v_17) ?v_194)) (or (or ?v_2 P36) ?v_135)) (or (or ?v_236 P39) ?v_139)) (or (or ?v_237 ?v_53) ?v_150)) (or (or ?v_40 ?v_33) ?v_120)) (or (or ?v_59 ?v_146) P48)) (or (or ?v_53 ?v_35) ?v_18)) (or (or ?v_91 P31) ?v_68)) (or (or ?v_95 ?v_169) ?v_107)) (or (or P28 ?v_53) ?v_43)) (or (or ?v_167 ?v_8) ?v_139)) (or (or ?v_261 ?v_93) ?v_180)) (or (or ?v_263 ?v_109) ?v_147)) (or (or ?v_200 ?v_50) ?v_134)) (or (or ?v_43 ?v_110) ?v_237)) (or (or ?v_238 ?v_151) ?v_7)) (or (or ?v_191 ?v_227) ?v_164)) (or (or ?v_226 ?v_186) ?v_228)) (or (or ?v_10 ?v_243) ?v_69)) (or (or P6 ?v_121) ?v_8)) (or (or ?v_200 ?v_121) ?v_54)) (or (or ?v_124 ?v_84) ?v_102)) (or (or ?v_196 ?v_103) ?v_108)) (or (or ?v_230 ?v_230) ?v_34)) (or (or ?v_118 ?v_237) ?v_214)) (or (or ?v_159 ?v_239) ?v_196)) (or (or ?v_147 ?v_186) ?v_62)) (or (or ?v_86 ?v_0) ?v_87)) (or (or P30 ?v_100) ?v_240)) (or (or ?v_61 ?v_211) ?v_140)) (or (or ?v_107 ?v_176) P42)) (or (or ?v_70 ?v_131) ?v_141)) (or (or ?v_110 ?v_94) P0)) (or (or ?v_175 P14) ?v_54)) (or (or P33 ?v_188) ?v_51)) (or (or ?v_205 ?v_15) ?v_239)) (or (or ?v_33 ?v_30) ?v_222)) (or (or ?v_180 ?v_140) P39)) (or (or ?v_230 ?v_235) ?v_163)) (or (or ?v_207 ?v_50) ?v_116)) (or (or ?v_217 P6) P44)) (or (or ?v_92 ?v_59) ?v_72)) (or (or ?v_207 P12) ?v_15)) (or (or ?v_34 ?v_95) ?v_20)) (or (or ?v_223 ?v_214) P34)) (or (or ?v_207 ?v_146) ?v_231)) (or (or ?v_241 ?v_225) ?v_224)) (or (or ?v_135 ?v_107) ?v_147)) (or (or ?v_99 P1) ?v_128)) (or (or P15 ?v_193) ?v_202)) (or (or ?v_190 ?v_168) ?v_207)) (or (or ?v_223 ?v_157) ?v_214)) (or (or ?v_84 P31) ?v_197)) (or (or ?v_242 ?v_170) ?v_63)) (or (or ?v_151 ?v_193) ?v_205)) (or (or ?v_56 ?v_99) ?v_243)) (or (or P13 ?v_103) ?v_109)) (or (or ?v_139 ?v_11) ?v_108)) (or (or ?v_234 ?v_29) ?v_151)) (or (or ?v_143 ?v_105) P32)) (or (or ?v_143 ?v_36) ?v_160)) (or (or P7 ?v_53) ?v_244)) (or (or ?v_173 ?v_99) ?v_60)) (or (or P28 ?v_117) ?v_22)) (or (or ?v_0 ?v_51) ?v_41)) (or (or P41 ?v_210) ?v_201)) (or (or ?v_115 ?v_189) ?v_79)) (or (or ?v_108 P23) ?v_172)) (or (or ?v_108 ?v_245) ?v_242)) (or (or P16 ?v_78) ?v_70)) (or (or ?v_243 P14) P48)) (or (or ?v_213 ?v_138) ?v_242)) (or (or ?v_181 P22) ?v_246)) (or (or ?v_118 ?v_239) P3)) (or (or ?v_40 P49) ?v_187)) (or (or ?v_181 ?v_223) ?v_138)) (or (or P34 ?v_184) P46)) (or (or ?v_81 ?v_173) ?v_139)) (or (or ?v_105 ?v_89) ?v_144)) (or (or ?v_34 ?v_236) ?v_37)) (or (or P39 P2) P38)) (or (or ?v_150 ?v_66) ?v_63)) (or (or ?v_78 ?v_131) ?v_169)) (or (or ?v_35 P24) ?v_168)) (or (or ?v_75 ?v_67) ?v_109)) (or (or P43 ?v_65) ?v_243)) (or (or ?v_11 ?v_122) ?v_100)) (or (or P19 ?v_61) ?v_192)) (or (or P13 ?v_175) ?v_234)) (or (or ?v_247 ?v_174) ?v_20)) (or (or ?v_27 ?v_149) P11)) (or (or P42 ?v_150) P40)) (or (or ?v_163 ?v_224) P16)) (or (or P14 (not P46)) ?v_248)) (or (or ?v_229 ?v_50) ?v_245)) (or (or P30 ?v_214) ?v_103)) (or (or ?v_112 ?v_201) ?v_117)) (or (or ?v_215 ?v_87) ?v_223)) (or (or ?v_72 ?v_149) ?v_55)) (or (or ?v_125 P12) ?v_183)) (or (or P10 ?v_107) ?v_23)) (or (or ?v_178 ?v_40) ?v_162)) (or (or P3 ?v_65) ?v_21)) (or (or ?v_60 ?v_162) ?v_137)) (or (or ?v_176 ?v_112) ?v_169)) (or (or ?v_231 ?v_181) ?v_93)) (or (or ?v_20 P2) ?v_249)) (or (or ?v_189 ?v_81) ?v_138)) (or (or ?v_46 P2) ?v_4)) (or (or ?v_38 ?v_161) ?v_188)) (or (or ?v_134 ?v_185) ?v_242)) (or (or ?v_135 ?v_247) P21)) (or (or ?v_61 ?v_127) ?v_147)) (or (or ?v_105 ?v_201) P21)) (or (or P17 ?v_242) ?v_227)) (or (or ?v_91 ?v_19) ?v_162)) (or (or ?v_124 ?v_254) ?v_14)) (or (or ?v_78 ?v_186) ?v_144)) (or (or ?v_18 ?v_69) P34)) (or (or ?v_1 P15) ?v_66)) (or (or ?v_248 ?v_69) P33)) (or (or ?v_230 ?v_156) ?v_138)) (or (or ?v_38 ?v_213) ?v_228)) (or (or P35 P38) ?v_104)) (or (or ?v_91 P25) P42)) (or (or P40 ?v_199) ?v_180)) (or (or P5 ?v_179) ?v_3)) (or (or ?v_84 ?v_226) ?v_230)) (or (or ?v_220 ?v_58) ?v_160)) (or (or ?v_149 P37) ?v_36)) (or (or ?v_205 ?v_248) ?v_132)) (or (or ?v_60 ?v_51) ?v_61)) (or (or ?v_162 ?v_189) P6)) (or (or ?v_233 ?v_15) ?v_143)) (or (or P24 ?v_235) ?v_245)) (or (or P49 ?v_191) ?v_250)) (or (or ?v_4 P28) ?v_24)) (or (or ?v_21 ?v_64) P48)) (or (or ?v_101 ?v_140) P8)) (or (or ?v_245 ?v_195) ?v_55)) (or (or ?v_77 ?v_56) ?v_199)) (or (or P4 ?v_124) ?v_126)) (or (or ?v_146 ?v_133) ?v_101)) (or (or ?v_167 ?v_63) ?v_211)) (or (or ?v_66 ?v_251) ?v_190)) (or (or ?v_114 ?v_130) ?v_147)) (or (or ?v_247 ?v_250) ?v_33)) (or (or P21 ?v_31) ?v_222)) (or (or ?v_215 ?v_184) ?v_237)) (or (or ?v_230 ?v_150) ?v_78)) (or (or ?v_117 ?v_10) ?v_140)) (or (or ?v_52 ?v_71) ?v_168)) (or (or P48 ?v_73) ?v_130)) (or (or ?v_207 ?v_24) ?v_18)) (or (or ?v_143 ?v_215) ?v_252)) (or (or ?v_45 ?v_228) P27)) (or (or ?v_155 ?v_203) ?v_85)) (or (or ?v_223 ?v_115) ?v_90)) (or (or ?v_173 ?v_120) ?v_53)) (or (or ?v_177 ?v_251) ?v_76)) (or (or ?v_209 ?v_124) ?v_38)) (or (or ?v_11 ?v_160) ?v_202)) (or (or ?v_117 P2) P22)) (or (or P5 ?v_210) P38)) (or (or ?v_163 ?v_132) ?v_246)) (or (or ?v_46 ?v_195) P1)) (or (or ?v_217 ?v_77) P28)) (or (or P4 ?v_227) ?v_162)) (or (or ?v_240 ?v_3) ?v_111)) (or (or ?v_253 ?v_242) ?v_188)) (or (or ?v_61 P2) ?v_182)) (or (or ?v_240 ?v_23) ?v_79)) (or (or ?v_169 ?v_88) ?v_55)) (or (or ?v_96 ?v_93) ?v_223)) (or (or P24 ?v_151) ?v_28)) (or (or ?v_103 ?v_119) P33)) (or (or ?v_254 ?v_207) ?v_217)) (or (or ?v_17 P21) ?v_100)) (or (or ?v_133 ?v_215) ?v_226)) (or (or ?v_206 ?v_204) ?v_13)) (or (or P41 P42) ?v_139)) (or (or ?v_62 ?v_19) ?v_101)) (or (or ?v_21 ?v_134) ?v_237)) (or (or ?v_217 ?v_53) P38)) (or (or ?v_251 ?v_211) ?v_146)) (or (or ?v_154 ?v_255) ?v_88)) (or (or ?v_75 ?v_254) ?v_213)) (or (or P4 ?v_185) ?v_246)) (or (or ?v_256 ?v_134) P49)) (or (or ?v_59 ?v_41) ?v_215)) (or (or ?v_191 ?v_190) ?v_91)) (or (or ?v_174 ?v_167) ?v_183)) (or (or ?v_175 ?v_184) P33)) (or (or ?v_211 P2) ?v_234)) (or (or ?v_225 ?v_251) ?v_247)) (or (or ?v_122 P42) ?v_249)) (or (or ?v_242 ?v_217) ?v_35)) (or (or ?v_147 ?v_93) ?v_61)) (or (or ?v_209 P38) ?v_112)) (or (or ?v_30 P10) ?v_123)) (or (or ?v_117 ?v_2) ?v_231)) (or (or ?v_110 ?v_143) P10)) (or (or ?v_100 ?v_121) ?v_151)) (or (or ?v_237 ?v_131) ?v_224)) (or (or ?v_223 ?v_46) P31)) (or (or ?v_190 ?v_103) ?v_203)) (or (or ?v_46 P16) P49)) (or (or P13 ?v_43) ?v_255)) (or (or ?v_9 P4) ?v_40)) (or (or ?v_77 ?v_133) ?v_257)) (or (or ?v_258 ?v_37) ?v_44)) (or (or ?v_195 ?v_60) ?v_86)) (or (or ?v_127 ?v_220) ?v_138)) (or (or ?v_74 ?v_62) ?v_249)) (or (or ?v_89 ?v_146) ?v_240)) (or (or ?v_22 ?v_221) ?v_188)) (or (or ?v_115 ?v_93) ?v_14)) (or (or ?v_194 ?v_40) ?v_152)) (or (or ?v_87 ?v_259) P1)) (or (or ?v_109 ?v_171) ?v_84)) (or (or P43 ?v_141) ?v_44)) (or (or ?v_63 ?v_192) ?v_132)) (or (or ?v_202 ?v_111) P25)) (or (or ?v_126 ?v_86) ?v_10)) (or (or ?v_68 ?v_106) ?v_259)) (or (or ?v_234 ?v_106) ?v_231)) (or (or ?v_180 P8) ?v_124)) (or (or ?v_10 ?v_28) ?v_1)) (or (or ?v_260 ?v_126) P12)) (or (or ?v_28 ?v_261) ?v_7)) (or (or ?v_84 ?v_252) ?v_66)) (or (or ?v_75 ?v_163) P29)) (or (or ?v_193 ?v_236) ?v_243)) (or (or ?v_161 ?v_151) ?v_252)) (or (or P25 ?v_99) ?v_64)) (or (or ?v_146 ?v_20) ?v_164)) (or (or P46 ?v_95) ?v_262)) (or (or ?v_244 ?v_71) ?v_149)) (or (or ?v_247 P14) ?v_14)) (or (or P29 ?v_76) ?v_95)) (or (or ?v_117 ?v_249) ?v_243)) (or (or ?v_68 ?v_56) ?v_135)) (or (or ?v_23 ?v_59) ?v_135)) (or (or ?v_119 P34) ?v_242)) (or (or ?v_70 ?v_231) P25)) (or (or ?v_223 P39) P47)) (or (or ?v_109 ?v_108) P20)) (or (or ?v_209 ?v_261) ?v_239)) (or (or ?v_263 P11) ?v_171)) (or (or P20 ?v_70) ?v_200)) (or (or ?v_72 ?v_38) ?v_177)) (or (or ?v_156 P31) ?v_21)) (or (or P16 ?v_31) ?v_211)) (or (or ?v_203 ?v_229) ?v_161)) (or (or P48 ?v_114) ?v_183)) (or (or ?v_176 ?v_110) ?v_137)) (or (or ?v_2 P20) ?v_110)) (or (or P10 P18) ?v_212)) (or (or ?v_175 ?v_20) ?v_249)) (or (or ?v_33 ?v_230) ?v_176)) (or (or ?v_184 ?v_133) ?v_150)) (or (or P37 ?v_126) P10)) (or (or ?v_212 P32) ?v_19)) (or (or ?v_133 ?v_7) ?v_44)) (or (or ?v_230 ?v_214) ?v_99)) (or (or ?v_20 ?v_88) ?v_73)) (or (or P34 ?v_117) ?v_94)) (or (or ?v_212 ?v_149) ?v_250)) (or (or ?v_21 ?v_200) ?v_71)) (or (or ?v_94 ?v_127) ?v_85)) (or (or ?v_85 ?v_91) P10)) (or (or ?v_17 P3) ?v_121)) (or (or P46 ?v_44) ?v_2)) (or (or P16 ?v_125) P4)) (or (or ?v_163 ?v_192) P16)) (or (or ?v_36 ?v_93) ?v_3)) (or (or ?v_118 P21) ?v_232)) (or (or ?v_224 ?v_250) ?v_180))))))))))))))))))))))))))))))))))))
(check-sat)
(exit)
